%%% static parameters %%%
timespan = 1;
Clients_N = [4000];
Demand_W = [15];
Lt0 = [4];
Lt1 = [4];
SS_ = [0.85];
DS_D = [20];
K = [200];
MA = [500];
HC = [0.05];
%%% dynamic parameters %%%
lost_ratio_sales_ret_th = 0.0007623565775829998;
lost_ratio_sales_ret_w = 83;
lost_ratio_sales_dis_th = 0.000585326895356193;
lost_ratio_sales_dis_w = 35;
lost_ratio_sales_fac_th = 0.00030043580477573254;
lost_ratio_sales_fac_w = 8;
stock_customer_MA_mean_relative_th = 0.7928750919100316;
stock_customer_MA_mean_relative_w = 34;
stock_distributor_MA_mean_relative_th = 0.015446692581298938;
stock_distributor_MA_mean_relative_w = 76;
stock_retailer_MA_mean_relative_th = 0.8934462934979698;
stock_retailer_MA_mean_relative_w = 94;
stock_factory_MA_mean_relative_th = 0.6985959984724774;
stock_factory_MA_mean_relative_w = 38;
